data/benchmarks/bayes/90-12-8-q.cnf
p cnf 672 599
c weights 0.0795393 0.9204607 1 1 1 1 1 1 1 1 1 1 1 1 1 1 1 1 1 1 1 1 1 1 1 1 1 1 1 1 1 1 1 1 1 1 1 1 1 1 1 1 1 1 1 1 1 1 1 1 1 1 1 1 1 1 1 1 1 1 1 1 1 1 1 1 1 1 1 1 1 1 1 1 1 1 1 1 1 1 1 1 1 1 1 1 1 1 1 1 1 1 1 1 1 1 1 1 1 1 1 1 1 1 1 1 1 1 1 1 1 1 1 1 1 1 1 1 1 1 1 1 1 1 1 1 1 1 1 1 1 1 1 1 1 1 1 1 1 1 1 1 1 1 1 1 1 1 1 1 1 1 1 1 1 1 1 1 1 1 1 1 1 1 1 1 1 1 1 1 1 1 1 1 1 1 1 1 1 1 1 1 1 1 1 1 1 1 1 1 1 1 1 1 1 1 1 1 1 1 1 1 1 1 1 1 1 1 1 1 1 1 1 1 1 1 1 1 1 1 1 1 1 1 1 1 1 1 1 1 1 1 1 1 1 1 1 1 1 1 1 1 1 1 1 1 1 1 1 1 1 1 1 1 1 1 1 1 1 1 1 1 1 1 1 1 1 1 1 1 1 1 1 1 1 1 1 1 1 1 1 1 1 1 1 1 1 1 0.5 0.5 0.5 0.5 0.5 0.5 0.5 0.5 0.5 0.5 0.5 0.5 0.464228 0.535772 0.111738 0.888262 0.5 0.5 0.5 0.5 0.5 0.5 0.5 0.5 0.5 0.5 0.5 0.5 0.5 0.5 0.5 0.5 0.5 0.5 0.5 0.5 0.5 0.5 0.5 0.5 0.5 0.5 0.5 0.5 0.432154 0.5678460000000001 0.694382 0.30561799999999995 0.5 0.5 0.5 0.5 0.5 0.5 0.5 0.5 0.5 0.5 0.5 0.5 0.5 0.5 0.5 0.5 0.5 0.5 0.5 0.5 0.5 0.5 0.5 0.5 0.544664 0.45533599999999996 0.390046 0.609954 0.13145 0.8685499999999999 0.40271 0.59729 0.66727 0.33272999999999997 0.179364 0.820636 0.94223 0.05776999999999999 0.409152 0.590848 0.5 0.5 0.5 0.5 0.5 0.5 0.5 0.5 0.0685336 0.9314664 0.524377 0.475623 0.601745 0.398255 0.628622 0.371378 0.5 0.5 0.5 0.5 0.5 0.5 0.5 0.5 0.5 0.5 0.5 0.5 0.5 0.5 0.5 0.5 0.5 0.5 0.5 0.5 0.5 0.5 0.5 0.5 0.5 0.5 0.5 0.5 0.5 0.5 0.5 0.5 0.5 0.5 0.5 0.5 0.558067 0.441933 0.337671 0.662329 0.936469 0.063531 0.626601 0.37339900000000004 0.5 0.5 0.5 0.5 0.5 0.5 0.5 0.5 0.5 0.5 0.5 0.5 0.5 0.5 0.5 0.5 0.5 0.5 0.5 0.5 0.5 0.5 0.5 0.5 0.5 0.5 0.5 0.5 0.5 0.5 0.5 0.5 0.5 0.5 0.5 0.5 0.5 0.5 0.5 0.5 0.5 0.5 0.5 0.5 0.5 0.5 0.5 0.5 0.5 0.5 0.5 0.5 0.5 0.5 0.5 0.5 0.5 0.5 0.5 0.5 0.5 0.5 0.5 0.5 0.5 0.5 0.5 0.5 0.5 0.5 0.5 0.5 0.5 0.5 0.5 0.5 0.5 0.5 0.5 0.5 0.5 0.5 0.5 0.5 0.5 0.5 0.5 0.5 0.5 0.5 0.5 0.5 0.5 0.5 0.5 0.5 0.5 0.5 0.5 0.5 0.152097 0.847903 0.31892 0.68108 0.722241 0.277759 0.256047 0.743953 0.5 0.5 0.5 0.5 0.5 0.5 0.5 0.5 0.5 0.5 0.5 0.5 0.5 0.5 0.5 0.5 0.5 0.5 0.5 0.5 0.5 0.5 0.5 0.5 0.5 0.5 0.5 0.5 0.5 0.5 0.5 0.5 0.5 0.5 0.5 0.5 0.5 0.5 0.5 0.5 0.5 0.5 0.5 0.5 0.5 0.5 0.5 0.5 0.5 0.5 0.5 0.5 0.5 0.5 0.5 0.5 0.5 0.5 0.5 0.5 0.5 0.5 0.5 0.5 0.727039 0.272961 0.132306 0.867694 0.377807 0.622193 0.825007 0.17499299999999995 0.174221 0.825779 0.386557 0.613443 0.5 0.5 0.5 0.5 0.5 0.5 0.5 0.5 0.233581 0.766419 0.842909 0.15709099999999998 0.628603 0.371397 0.140671 0.859329 0.5 0.5 0.5 0.5 0.5 0.5 0.5 0.5 0.5 0.5 0.5 0.5 0.5 0.5 0.5 0.5 0.5 0.5 0.5 0.5 0.5 0.5 0.5 0.5 0.5 0.5 0.5 0.5 0.5 0.5 0.5 0.5 0.5 0.5 0.5 0.5 0.5 0.5 0.5 0.5 0.5 0.5 0.5 0.5 0.5 0.5 0.5 0.5 0.5 0.5 0.5 0.5 0.5 0.5 0.5 0.5 0.5 0.5 0.5 0.5 0.5 0.5 0.5 0.5 0.5 0.5 0.5 0.5 0.5 0.5 0.5 0.5 0.5 0.5 0.5 0.5 0.5 0.5 0.5 0.5 0.5 0.5 0.5 0.5 0.5 0.5 0.5 0.5 0.5 0.5 0.5 0.5 0.5 0.5 0.5 0.5 0.5 0.5 0.5 0.5 0.5 0.5 0.5 0.5 0.5 0.5 0.5 0.5 0.238441 0.761559 0.0216542 0.9783458 0.777659 0.222341 0.860034 0.13996600000000003 0.5 0.5 0.5 0.5 0.5 0.5 0.5 0.5 0.5 0.5 0.5 0.5 0.5 0.5 0.5 0.5 0.5 0.5 0.5 0.5 0.5 0.5 0.5 0.5 0.0495385 0.9504615 0.389764 0.610236 0.594085 0.405915 0.614491 0.385509 0.5 0.5 0.5 0.5 0.5 0.5 0.5 0.5 0.5 0.5 0.5 0.5 0.473076 0.526924 0.317473 0.682527 0.853032 0.146968 0.825003 0.17499699999999996 0.5 0.5 0.5 0.5 0.5 0.5 0.5 0.5 0.5 0.5 0.5 0.5 0.5 0.5 0.5 0.5 0.5 0.5 0.5 0.5 0.5 0.5 0.5 0.5 0.5 0.5 0.5 0.5 0.5 0.5 0.5 0.5 0.5 0.5 0.5 0.5 0.5 0.5 0.5 0.5 0.5 0.5 0.5 0.5 0.5 0.5 0.5 0.5 0.5 0.5 0.5 0.5 0.5 0.5 0.5 0.5 0.5 0.5 0.5 0.5 0.5 0.5 0.5 0.5 0.5 0.5 0.5 0.5 0.5 0.5 0.5 0.5 0.5 0.5 0.5 0.5 0.5 0.5 0.5 0.5 0.5 0.5 0.5 0.5 0.5 0.5 0.5 0.5 0.5 0.5 0.5 0.5 0.5 0.5 0.5 0.5 0.5 0.5 0.5 0.5 0.5 0.5 0.5 0.5 0.5 0.5 0.5 0.5 0.909424 0.09057599999999999 0.790974 0.20902600000000005 0.0256204 0.9743796 0.444555 0.555445 0.5 0.5 0.5 0.5 0.5 0.5 0.5 0.5 0.977858 0.022141999999999995 0.463544 0.536456 0.636977 0.363023 0.470851 0.529149 0.5 0.5 0.5 0.5 0.5 0.5 0.5 0.5 0.5 0.5 0.5 0.5 0.5 0.5 0.5 0.5 0.5 0.5 0.5 0.5 0.5 0.5 0.5 0.5 0.5 0.5 0.5 0.5 0.5 0.5 0.5 0.5 0.5 0.5 0.5 0.5 0.5 0.5 0.5 0.5 0.5 0.5 0.5 0.5 0.5 0.5 0.5 0.5 0.5 0.5 0.5 0.5 0.5 0.5 0.5 0.5 0.5 0.5 0.5 0.5 0.5 0.5 0.5 0.5 0.5 0.5 0.5 0.5 0.86809 0.13190999999999997 0.128862 0.871138 0.0384672 0.9615328 0.959537 0.04046300000000003 0.5 0.5 0.5 0.5 0.5 0.5 0.5 0.5 0.5 0.5 0.5 0.5 0.5 0.5 0.5 0.5 0.5 0.5 0.5 0.5 0.5 0.5 0.5 0.5 0.5 0.5 0.5 0.5 0.5 0.5 0.5 0.5 0.5 0.5 0.5 0.5 0.5 0.5 0.5 0.5 0.5 0.5 0.5 0.5 0.5 0.5 0.5 0.5 0.987478 0.012522000000000033 0.680726 0.31927399999999995 0.0462889 0.9537111 0.424773 0.5752269999999999 0.5 0.5 0.5 0.5 0.5 0.5 0.5 0.5 0.5 0.5 0.5 0.5 0.5 0.5 0.5 0.5 0.5 0.5 0.5 0.5 0.5 0.5 0.5 0.5 0.5 0.5 0.5 0.5 0.5 0.5 0.5 0.5 0.5 0.5 0.5 0.5 0.5 0.5 0.5 0.5 0.5 0.5 0.5 0.5 0.5 0.5 0.5 0.5 0.5 0.5 0.5 0.5 0.5 0.5 0.5 0.5 0.5 0.5 0.5 0.5 0.5 0.5 0.5 0.5 0.5 0.5 0.5 0.5 0.5 0.5 0.5 0.5 0.5 0.5 0.5 0.5 0.5 0.5 0.5 0.5 0.5 0.5 0.5 0.5 0.5 0.5 0.5 0.5 0.5 0.5 0.5 0.5 0.5 0.5 0.5 0.5 0.5 0.5 0.5 0.5 0.5 0.5 0.5 0.5 0.5 0.5 0.5 0.5 0.5 0.5 0.5 0.5 0.5 0.5 0.5 0.5 0.5 0.5 0.5 0.5 0.5 0.5 0.5 0.5 0.5 0.5 0.5 0.5 0.741145 0.25885499999999995 0.905148 0.09485200000000005 0.461716 0.538284 0.32761 0.67239 0.5 0.5 0.5 0.5 0.5 0.5 0.5 0.5 0.5 0.5 0.5 0.5 0.5 0.5 0.5 0.5 0.5 0.5 0.5 0.5 0.5 0.5 0.5 0.5 0.5 0.5 0.5 0.5 0.5 0.5 0.5 0.5 0.5 0.5 0.5 0.5 0.5 0.5 0.5 0.5 0.5 0.5 0.5 0.5 0.5 0.5 0.5 0.5 0.5 0.5 0.5 0.5 0.5 0.5 0.5 0.5 0.5 0.5 0.5 0.5 0.5 0.5 0.5 0.5 0.5 0.5 0.5 0.5 0.5 0.5 0.5 0.5 0.5 0.5 0.5 0.5 0.5 0.5 0.5 0.5 0.5 0.5 0.5 0.5 0.5 0.5 0.5 0.5 0.5 0.5 0.5 0.5 0.5 0.5 0.5 0.5 0.5 0.5 0.5 0.5 0.5 0.5 0.5 0.5 0.5 0.5 0.5 0.5 0.968375 0.031625000000000014 0.235408 0.7645919999999999 0.00892923 0.99107077 0.0257174 0.9742826 0.5 0.5 0.5 0.5 0.5 0.5 0.5 0.5 0.5 0.5 0.5 0.5 0.5 0.5 0.5 0.5 0.5 0.5 0.5 0.5 0.5 0.5 0.5 0.5
-1 2 0
1 -2 0
-2 3 0
2 -3 0
-3 -4 0
3 4 0
-4 -151 5 0
-4 151 -5 0
4 -152 5 0
4 152 -5 0
-5 -6 0
5 6 0
-6 -7 0
6 7 0
-7 8 0
7 -8 0
-8 9 0
8 -9 0
-9 -10 0
9 10 0
-10 11 0
10 -11 0
-11 -12 0
11 12 0
-1 -167 13 0
-1 167 -13 0
1 -168 13 0
1 168 -13 0
-13 -2 14 0
-13 2 -14 0
13 -2 14 0
13 2 -14 0
-14 -3 15 0
-14 3 -15 0
14 -3 -15 0
14 3 -15 0
-15 -4 -16 0
-15 4 16 0
15 -4 16 0
15 4 16 0
-16 -5 -181 17 0
-16 -5 181 -17 0
-16 5 -182 17 0
-16 5 182 -17 0
16 -5 -183 17 0
16 -5 183 -17 0
16 5 -184 17 0
16 5 184 -17 0
-17 -6 -185 18 0
-17 -6 185 -18 0
-17 6 -186 18 0
-17 6 186 -18 0
17 -6 -187 18 0
17 -6 187 -18 0
17 6 -188 18 0
17 6 188 -18 0
-18 -7 -19 0
-18 7 -19 0
18 -7 19 0
18 7 19 0
-19 -8 -193 20 0
-19 -8 193 -20 0
-19 8 -194 20 0
-19 8 194 -20 0
19 -8 -195 20 0
19 -8 195 -20 0
19 8 -196 20 0
19 8 196 -20 0
-20 -9 21 0
-20 9 -21 0
20 -9 21 0
20 9 21 0
-21 -10 22 0
-21 10 22 0
21 -10 -22 0
21 10 -22 0
-22 -11 23 0
-22 11 -23 0
22 -11 23 0
22 11 23 0
-23 -12 24 0
-23 12 -24 0
23 -12 -24 0
23 12 -24 0
-13 25 0
13 -25 0
-25 -14 -215 26 0
-25 -14 215 -26 0
-25 14 -216 26 0
-25 14 216 -26 0
25 -14 -217 26 0
25 -14 217 -26 0
25 14 -218 26 0
25 14 218 -26 0
-26 -15 27 0
-26 15 -27 0
26 -15 27 0
26 15 -27 0
-27 -16 -28 0
-27 16 28 0
27 -16 28 0
27 16 -28 0
-28 -17 29 0
-28 17 -29 0
28 -17 -29 0
28 17 29 0
-29 -18 30 0
-29 18 -30 0
29 -18 -30 0
29 18 -30 0
-30 -19 31 0
-30 19 31 0
30 -19 31 0
30 19 -31 0
-31 -20 -32 0
-31 20 -32 0
31 -20 -32 0
31 20 32 0
-32 -21 -33 0
-32 21 -33 0
32 -21 33 0
32 21 -33 0
-33 -22 34 0
-33 22 -34 0
33 -22 -34 0
33 22 34 0
-34 -23 35 0
-34 23 -35 0
34 -23 35 0
34 23 35 0
-35 -24 -36 0
-35 24 -36 0
35 -24 36 0
35 24 36 0
-25 37 0
25 -37 0
-37 -26 -38 0
-37 26 -38 0
37 -26 38 0
37 26 -38 0
-38 -27 -39 0
-38 27 39 0
38 -27 39 0
38 27 -39 0
-39 -28 -269 40 0
-39 -28 269 -40 0
-39 28 -270 40 0
-39 28 270 -40 0
39 -28 -271 40 0
39 -28 271 -40 0
39 28 -272 40 0
39 28 272 -40 0
-40 -29 41 0
-40 29 41 0
40 -29 41 0
40 29 -41 0
-41 -30 -42 0
-41 30 42 0
41 -30 42 0
41 30 42 0
-42 -31 -43 0
-42 31 -43 0
42 -31 43 0
42 31 -43 0
-43 -32 44 0
-43 32 -44 0
43 -32 -44 0
43 32 -44 0
-44 -33 45 0
-44 33 -45 0
44 -33 -45 0
44 33 -45 0
-45 -34 46 0
-45 34 -46 0
45 -34 -46 0
45 34 -46 0
-46 -35 47 0
-46 35 47 0
46 -35 47 0
46 35 -47 0
-47 -36 -48 0
-47 36 48 0
47 -36 48 0
47 36 -48 0
-37 -305 49 0
-37 305 -49 0
37 -306 49 0
37 306 -49 0
-49 -38 -307 50 0
-49 -38 307 -50 0
-49 38 -308 50 0
-49 38 308 -50 0
49 -38 -309 50 0
49 -38 309 -50 0
49 38 -310 50 0
49 38 310 -50 0
-50 -39 51 0
-50 39 51 0
50 -39 -51 0
50 39 51 0
-51 -40 -315 52 0
-51 -40 315 -52 0
-51 40 -316 52 0
-51 40 316 -52 0
51 -40 -317 52 0
51 -40 317 -52 0
51 40 -318 52 0
51 40 318 -52 0
-52 -41 -53 0
-52 41 -53 0
52 -41 -53 0
52 41 53 0
-53 -42 -54 0
-53 42 54 0
53 -42 54 0
53 42 54 0
-54 -43 55 0
-54 43 -55 0
54 -43 55 0
54 43 55 0
-55 -44 -56 0
-55 44 56 0
55 -44 -56 0
55 44 56 0
-56 -45 57 0
-56 45 -57 0
56 -45 -57 0
56 45 57 0
-57 -46 58 0
-57 46 58 0
57 -46 -58 0
57 46 -58 0
-58 -47 59 0
-58 47 -59 0
58 -47 59 0
58 47 59 0
-59 -48 -60 0
-59 48 60 0
59 -48 60 0
59 48 60 0
-49 -61 0
49 61 0
-61 -50 -62 0
-61 50 62 0
61 -50 -62 0
61 50 62 0
-62 -51 -63 0
-62 51 63 0
62 -51 63 0
62 51 -63 0
-63 -52 -64 0
-63 52 -64 0
63 -52 64 0
63 52 -64 0
-64 -53 -65 0
-64 53 -65 0
64 -53 -65 0
64 53 65 0
-65 -54 66 0
-65 54 -66 0
65 -54 -66 0
65 54 -66 0
-66 -55 -373 67 0
-66 -55 373 -67 0
-66 55 -374 67 0
-66 55 374 -67 0
66 -55 -375 67 0
66 -55 375 -67 0
66 55 -376 67 0
66 55 376 -67 0
-67 -56 68 0
-67 56 68 0
67 -56 68 0
67 56 -68 0
-68 -57 69 0
-68 57 69 0
68 -57 -69 0
68 57 69 0
-69 -58 70 0
-69 58 70 0
69 -58 -70 0
69 58 70 0
-70 -59 -389 71 0
-70 -59 389 -71 0
-70 59 -390 71 0
-70 59 390 -71 0
70 -59 -391 71 0
70 -59 391 -71 0
70 59 -392 71 0
70 59 392 -71 0
-71 -60 72 0
-71 60 -72 0
71 -60 72 0
71 60 72 0
-61 73 0
61 -73 0
-73 -62 -399 74 0
-73 -62 399 -74 0
-73 62 -400 74 0
-73 62 400 -74 0
73 -62 -401 74 0
73 -62 401 -74 0
73 62 -402 74 0
73 62 402 -74 0
-74 -63 -75 0
-74 63 75 0
74 -63 75 0
74 63 -75 0
-75 -64 -76 0
-75 64 -76 0
75 -64 76 0
75 64 -76 0
-76 -65 -77 0
-76 65 77 0
76 -65 77 0
76 65 77 0
-77 -66 78 0
-77 66 -78 0
77 -66 78 0
77 66 78 0
-78 -67 79 0
-78 67 -79 0
78 -67 79 0
78 67 79 0
-79 -68 80 0
-79 68 80 0
79 -68 80 0
79 68 -80 0
-80 -69 -81 0
-80 69 -81 0
80 -69 81 0
80 69 -81 0
-81 -70 82 0
-81 70 -82 0
81 -70 82 0
81 70 82 0
-82 -71 83 0
-82 71 -83 0
82 -71 83 0
82 71 -83 0
-83 -72 -84 0
-83 72 84 0
83 -72 -84 0
83 72 84 0
-73 85 0
73 -85 0
-85 -74 -86 0
-85 74 86 0
85 -74 86 0
85 74 86 0
-86 -75 -87 0
-86 75 87 0
86 -75 87 0
86 75 -87 0
-87 -76 -88 0
-87 76 88 0
87 -76 88 0
87 76 88 0
-88 -77 -457 89 0
-88 -77 457 -89 0
-88 77 -458 89 0
-88 77 458 -89 0
88 -77 -459 89 0
88 -77 459 -89 0
88 77 -460 89 0
88 77 460 -89 0
-89 -78 90 0
-89 78 -90 0
89 -78 90 0
89 78 -90 0
-90 -79 -465 91 0
-90 -79 465 -91 0
-90 79 -466 91 0
-90 79 466 -91 0
90 -79 -467 91 0
90 -79 467 -91 0
90 79 -468 91 0
90 79 468 -91 0
-91 -80 -92 0
-91 80 92 0
91 -80 92 0
91 80 92 0
-92 -81 93 0
-92 81 -93 0
92 -81 93 0
92 81 93 0
-93 -82 94 0
-93 82 -94 0
93 -82 -94 0
93 82 -94 0
-94 -83 95 0
-94 83 95 0
94 -83 95 0
94 83 -95 0
-95 -84 96 0
-95 84 96 0
95 -84 -96 0
95 84 -96 0
-85 97 0
85 -97 0
-97 -86 98 0
-97 86 98 0
97 -86 -98 0
97 86 -98 0
-98 -87 99 0
-98 87 -99 0
98 -87 99 0
98 87 99 0
-99 -88 100 0
-99 88 -100 0
99 -88 100 0
99 88 -100 0
-100 -89 -503 101 0
-100 -89 503 -101 0
-100 89 -504 101 0
-100 89 504 -101 0
100 -89 -505 101 0
100 -89 505 -101 0
100 89 -506 101 0
100 89 506 -101 0
-101 -90 102 0
-101 90 102 0
101 -90 -102 0
101 90 -102 0
-102 -91 -103 0
-102 91 103 0
102 -91 -103 0
102 91 -103 0
-103 -92 104 0
-103 92 104 0
103 -92 -104 0
103 92 104 0
-104 -93 -105 0
-104 93 105 0
104 -93 -105 0
104 93 105 0
-105 -94 106 0
-105 94 -106 0
105 -94 -106 0
105 94 -106 0
-106 -95 107 0
-106 95 -107 0
106 -95 107 0
106 95 107 0
-107 -96 -531 108 0
-107 -96 531 -108 0
-107 96 -532 108 0
-107 96 532 -108 0
107 -96 -533 108 0
107 -96 533 -108 0
107 96 -534 108 0
107 96 534 -108 0
-97 -109 0
97 109 0
-109 -98 -110 0
-109 98 -110 0
109 -98 110 0
109 98 -110 0
-110 -99 -111 0
-110 99 111 0
110 -99 111 0
110 99 111 0
-111 -100 -112 0
-111 100 112 0
111 -100 -112 0
111 100 -112 0
-112 -101 113 0
-112 101 -113 0
112 -101 113 0
112 101 113 0
-113 -102 114 0
-113 102 -114 0
113 -102 114 0
113 102 -114 0
-114 -103 -115 0
-114 103 -115 0
114 -103 115 0
114 103 115 0
-115 -104 -116 0
-115 104 116 0
115 -104 116 0
115 104 116 0
-116 -105 117 0
-116 105 -117 0
116 -105 -117 0
116 105 -117 0
-117 -106 118 0
-117 106 -118 0
117 -106 118 0
117 106 -118 0
-118 -107 -119 0
-118 107 119 0
118 -107 -119 0
118 107 119 0
-119 -108 -120 0
-119 108 120 0
119 -108 120 0
119 108 -120 0
-109 -121 0
109 121 0
-121 -110 -122 0
-121 110 122 0
121 -110 122 0
121 110 122 0
-122 -111 -123 0
-122 111 -123 0
122 -111 123 0
122 111 123 0
-123 -112 124 0
-123 112 -124 0
123 -112 124 0
123 112 124 0
-124 -113 125 0
-124 113 -125 0
124 -113 125 0
124 113 125 0
-125 -114 -599 126 0
-125 -114 599 -126 0
-125 114 -600 126 0
-125 114 600 -126 0
125 -114 -601 126 0
125 -114 601 -126 0
125 114 -602 126 0
125 114 602 -126 0
-126 -115 127 0
-126 115 -127 0
126 -115 -127 0
126 115 -127 0
-127 -116 -128 0
-127 116 128 0
127 -116 128 0
127 116 128 0
-128 -117 129 0
-128 117 129 0
128 -117 129 0
128 117 -129 0
-129 -118 130 0
-129 118 -130 0
129 -118 130 0
129 118 -130 0
-130 -119 131 0
-130 119 -131 0
130 -119 131 0
130 119 131 0
-131 -120 132 0
-131 120 132 0
131 -120 132 0
131 120 -132 0
-121 133 0
121 -133 0
-133 -122 134 0
-133 122 -134 0
133 -122 134 0
133 122 134 0
-134 -123 -135 0
-134 123 -135 0
134 -123 -135 0
134 123 135 0
-135 -124 136 0
-135 124 -136 0
135 -124 -136 0
135 124 136 0
-136 -125 -137 0
-136 125 137 0
136 -125 137 0
136 125 -137 0
-137 -126 -138 0
-137 126 138 0
137 -126 -138 0
137 126 138 0
-138 -127 -139 0
-138 127 139 0
138 -127 -139 0
138 127 139 0
-139 -128 140 0
-139 128 -140 0
139 -128 -140 0
139 128 -140 0
-140 -129 -657 141 0
-140 -129 657 -141 0
-140 129 -658 141 0
-140 129 658 -141 0
140 -129 -659 141 0
140 -129 659 -141 0
140 129 -660 141 0
140 129 660 -141 0
-141 -130 142 0
-141 130 142 0
141 -130 -142 0
141 130 142 0
-142 -131 -143 0
-142 131 -143 0
142 -131 -143 0
142 131 143 0
-143 -132 144 0
-143 132 144 0
143 -132 144 0
143 132 -144 0
144 0
