data/benchmarks/bayes/90-12-8-q.gr
p tw 672 589
55 66
37 305
67 68
99 100
88 100
107 531
70 82
8 9
40 41
29 41
100 101
11 23
121 133
41 42
40 315
73 74
62 74
133 134
44 56
140 658
129 658
14 15
3 15
17 188
52 316
74 75
106 107
95 107
122 133
141 659
15 16
6 187
47 48
36 48
107 108
96 108
18 30
128 140
21 32
80 81
69 81
140 141
113 124
129 141
10 22
81 82
54 65
102 114
5 181
17 183
22 23
43 55
89 458
114 115
87 98
51 315
103 115
55 56
28 39
76 88
88 99
126 601
29 40
77 89
2 13
62 73
110 122
88 458
140 657
129 657
3 14
17 187
51 63
35 46
95 106
77 457
6 186
36 47
128 139
21 22
13 167
69 80
113 114
16 181
10 21
54 55
102 113
17 182
71 391
43 54
87 88
114 599
28 29
17 29
76 87
88 89
109 121
74 401
126 600
29 30
61 62
50 62
50 309
121 122
2 3
62 63
94 95
83 95
110 121
88 457
3 4
35 36
24 36
5 184
108 533
26 216
95 96
84 96
127 128
116 128
51 318
19 195
8 195
9 20
68 69
57 69
28 271
128 129
117 129
91 467
20 196
69 70
42 53
40 272
58 70
67 375
101 102
90 102
10 11
31 43
70 389
59 389
5 152
102 103
75 86
91 103
123 135
43 44
16 27
32 44
71 390
64 76
125 599
135 136
108 119
124 136
89 505
5 17
77 460
17 28
76 77
65 77
97 109
101 506
6 18
74 400
50 61
98 110
82 93
1 168
50 308
39 51
23 34
16 184
83 94
131 143
115 126
24 35
72 84
56 67
108 532
26 215
116 127
9 10
19 194
8 194
114 602
57 68
28 270
89 100
91 466
30 41
42 43
90 101
67 374
134 135
31 42
75 76
5 151
14 218
123 134
16 17
18 188
64 75
96 531
89 504
5 16
49 50
38 50
109 110
130 142
49 306
74 399
50 51
82 83
71 83
142 143
1 167
50 307
39 270
55 376
23 24
12 24
70 392
83 84
115 116
104 116
56 57
45 57
116 117
105 117
57 58
46 58
73 402
62 402
89 90
78 90
100 505
28 269
49 310
38 310
30 31
19 31
91 465
90 91
63 74
79 91
111 123
25 218
67 373
31 32
4 15
20 32
52 64
141 142
123 124
112 124
14 217
18 187
64 65
53 65
85 97
5 6
26 38
90 468
79 468
89 503
38 49
97 98
70 81
86 98
118 130
130 141
66 376
49 305
27 39
11 22
71 82
119 131
55 375
39 269
12 23
60 72
44 55
104 115
52 315
1 13
122 123
45 56
93 105
141 658
96 107
107 534
96 534
18 29
100 504
78 89
126 138
19 30
129 140
63 64
111 122
40 318
4 5
25 37
52 63
89 457
103 114
37 38
26 37
70 71
59 71
118 129
130 131
77 88
11 12
92 104
44 45
33 45
17 186
125 137
51 62
66 78
141 657
6 185
137 138
18 19
7 19
99 111
100 503
129 130
40 52
111 112
100 112
132 144
40 317
73 85
17 181
140 660
129 660
103 104
14 26
85 86
106 118
136 137
47 59
59 70
118 119
107 119
126 599
77 78
80 92
92 103
110 111
33 44
81 93
51 52
5 183
17 185
125 136
84 95
143 144
51 317
66 77
114 126
117 128
55 67
20 195
99 110
58 69
40 271
40 51
132 143
91 102
25 26
88 460
32 43
71 389
140 659
129 659
14 25
124 135
17 18
77 459
106 117
65 76
47 58
101 505
6 17
98 109
21 33
80 91
113 125
39 50
16 183
59 392
131 142
54 66
13 25
5 182
17 184
72 83
108 531
125 602
87 99
51 316
19 193
8 193
114 601
117 118
28 40
120 132
58 59
20 194
126 602
40 270
61 73
91 92
2 14
94 106
32 33
88 459
124 125
26 218
35 47
127 139
65 66
77 458
68 80
6 7
101 504
139 140
98 99
13 168
101 113
39 40
16 182
70 391
59 391
131 132
71 392
125 601
105 116
46 57
73 401
62 401
114 600
49 309
38 309
120 131
20 193
74 402
79 90
40 269
25 217
50 310
20 31
112 123
14 216
94 105
18 186
53 64
108 534
26 217
38 39
90 467
79 467
127 138
19 196
8 196
86 97
9 21
28 272
66 375
68 79
27 38
91 468
101 503
71 72
119 130
42 54
55 374
67 376
101 112
60 71
104 105
70 390
59 390
75 87
13 14
45 46
34 46
93 104
105 106
125 600
16 28
107 533
96 533
46 47
108 120
78 79
67 79
73 400
62 400
89 506
126 137
138 139
49 61
19 20
8 20
49 308
38 308
79 80
25 216
82 94
20 21
52 53
39 272
41 53
112 113
23 35
14 215
52 318
115 127
53 54
18 185
74 86
56 68
26 27
15 27
90 466
86 87
79 466
4 152
89 101
27 28
66 374
48 60
119 120
30 42
55 373
1 2
22 34
89 460
34 45
93 94
7 18
107 532
37 306
96 532
67 78
73 399
62 399
126 127
8 19
49 307
38 307
100 111
25 215
40 316
41 52
39 271
52 317
74 85
122 134
141 660
6 188
15 26
59 60
90 465
79 465
107 118
100 506
4 151
66 373
48 59
92 93
63 75
33 34
81 92
4 16
125 126
22 33
34 35
66 67
89 459
114 125
37 49
7 8
